c Modular CNF with 2 modules
c Generated CNF instance
p cnf 20 320
6 5 1 0
6 5 -1 0
6 -5 1 0
-6 5 1 0
7 3 8 0
7 3 -8 0
7 -3 8 0
-7 3 8 0
7 8 5 0
7 8 -5 0
7 -8 5 0
-7 8 5 0
3 2 8 0
3 2 -8 0
3 -2 8 0
-3 2 8 0
5 7 2 0
5 7 -2 0
5 -7 2 0
-5 7 2 0
6 4 2 0
6 4 -2 0
6 -4 2 0
-6 4 2 0
7 6 8 0
7 6 -8 0
7 -6 8 0
-7 6 8 0
1 8 3 0
1 8 -3 0
1 -8 3 0
-1 8 3 0
9 1 5 0
9 1 -5 0
9 -1 5 0
-9 1 5 0
9 10 3 0
9 10 -3 0
9 -10 3 0
-9 10 3 0
2 5 8 0
2 5 -8 0
2 -5 8 0
-2 5 8 0
4 5 8 0
4 5 -8 0
4 -5 8 0
-4 5 8 0
3 8 2 0
3 8 -2 0
3 -8 2 0
-3 8 2 0
3 7 4 0
3 7 -4 0
3 -7 4 0
-3 7 4 0
5 10 3 0
5 10 -3 0
5 -10 3 0
-5 10 3 0
2 9 8 0
2 9 -8 0
2 -9 8 0
-2 9 8 0
7 1 3 0
7 1 -3 0
7 -1 3 0
-7 1 3 0
3 6 10 0
3 6 -10 0
3 -6 10 0
-3 6 10 0
3 10 6 0
3 10 -6 0
3 -10 6 0
-3 10 6 0
3 1 4 0
3 1 -4 0
3 -1 4 0
-3 1 4 0
5 9 10 0
5 9 -10 0
5 -9 10 0
-5 9 10 0
10 4 5 0
10 4 -5 0
10 -4 5 0
-10 4 5 0
1 5 8 0
1 5 -8 0
1 -5 8 0
-1 5 8 0
2 4 9 0
2 4 -9 0
2 -4 9 0
-2 4 9 0
5 3 9 0
5 3 -9 0
5 -3 9 0
-5 3 9 0
3 8 9 0
3 8 -9 0
3 -8 9 0
-3 8 9 0
5 8 6 0
5 8 -6 0
5 -8 6 0
-5 8 6 0
3 6 8 0
3 6 -8 0
3 -6 8 0
-3 6 8 0
1 8 2 0
1 8 -2 0
1 -8 2 0
-1 8 2 0
2 10 3 0
2 10 -3 0
2 -10 3 0
-2 10 3 0
5 4 1 0
5 4 -1 0
5 -4 1 0
-5 4 1 0
9 10 7 0
9 10 -7 0
9 -10 7 0
-9 10 7 0
6 9 4 0
6 9 -4 0
6 -9 4 0
-6 9 4 0
4 3 6 0
4 3 -6 0
4 -3 6 0
-4 3 6 0
6 8 3 0
6 8 -3 0
6 -8 3 0
-6 8 3 0
8 9 3 0
8 9 -3 0
8 -9 3 0
-8 9 3 0
8 10 3 0
8 10 -3 0
8 -10 3 0
-8 10 3 0
1 3 6 0
1 3 -6 0
1 -3 6 0
-1 3 6 0
3 7 4 0
3 7 -4 0
3 -7 4 0
-3 7 4 0
2 6 5 0
2 6 -5 0
2 -6 5 0
-2 6 5 0
16 12 19 0
16 12 -19 0
16 -12 19 0
-16 12 19 0
20 19 17 0
20 19 -17 0
20 -19 17 0
-20 19 17 0
20 19 16 0
20 19 -16 0
20 -19 16 0
-20 19 16 0
11 12 13 0
11 12 -13 0
11 -12 13 0
-11 12 13 0
16 15 13 0
16 15 -13 0
16 -15 13 0
-16 15 13 0
18 11 17 0
18 11 -17 0
18 -11 17 0
-18 11 17 0
20 12 17 0
20 12 -17 0
20 -12 17 0
-20 12 17 0
11 13 15 0
11 13 -15 0
11 -13 15 0
-11 13 15 0
15 19 16 0
15 19 -16 0
15 -19 16 0
-15 19 16 0
13 16 15 0
13 16 -15 0
13 -16 15 0
-13 16 15 0
14 13 17 0
14 13 -17 0
14 -13 17 0
-14 13 17 0
11 12 14 0
11 12 -14 0
11 -12 14 0
-11 12 14 0
17 18 15 0
17 18 -15 0
17 -18 15 0
-17 18 15 0
19 15 16 0
19 15 -16 0
19 -15 16 0
-19 15 16 0
12 11 15 0
12 11 -15 0
12 -11 15 0
-12 11 15 0
17 18 16 0
17 18 -16 0
17 -18 16 0
-17 18 16 0
17 20 13 0
17 20 -13 0
17 -20 13 0
-17 20 13 0
16 13 11 0
16 13 -11 0
16 -13 11 0
-16 13 11 0
11 12 16 0
11 12 -16 0
11 -12 16 0
-11 12 16 0
14 11 15 0
14 11 -15 0
14 -11 15 0
-14 11 15 0
12 18 20 0
12 18 -20 0
12 -18 20 0
-12 18 20 0
17 15 16 0
17 15 -16 0
17 -15 16 0
-17 15 16 0
11 12 20 0
11 12 -20 0
11 -12 20 0
-11 12 20 0
15 16 20 0
15 16 -20 0
15 -16 20 0
-15 16 20 0
18 12 20 0
18 12 -20 0
18 -12 20 0
-18 12 20 0
18 15 17 0
18 15 -17 0
18 -15 17 0
-18 15 17 0
12 17 15 0
12 17 -15 0
12 -17 15 0
-12 17 15 0
12 13 20 0
12 13 -20 0
12 -13 20 0
-12 13 20 0
12 17 13 0
12 17 -13 0
12 -17 13 0
-12 17 13 0
17 15 18 0
17 15 -18 0
17 -15 18 0
-17 15 18 0
18 12 17 0
18 12 -17 0
18 -12 17 0
-18 12 17 0
11 14 12 0
11 14 -12 0
11 -14 12 0
-11 14 12 0
16 14 11 0
16 14 -11 0
16 -14 11 0
-16 14 11 0
15 13 17 0
15 13 -17 0
15 -13 17 0
-15 13 17 0
14 20 11 0
14 20 -11 0
14 -20 11 0
-14 20 11 0
16 17 13 0
16 17 -13 0
16 -17 13 0
-16 17 13 0
14 13 16 0
14 13 -16 0
14 -13 16 0
-14 13 16 0
14 15 20 0
14 15 -20 0
14 -15 20 0
-14 15 20 0
18 19 16 0
18 19 -16 0
18 -19 16 0
-18 19 16 0
17 12 13 0
17 12 -13 0
17 -12 13 0
-17 12 13 0
